cvc5/209a7c61bdeaea04f6723684f606699e8a2dac589cf03aa593675c21_hard.smt2
(set-info :smt-lib-version 2.6)
(set-logic QF_SLIA)
(set-info :source |
Generated by: Wei-Cheng Wu
Generated on: 2020-02-24
Generator: PyExZ3
Application: Concolic execution of Python code
Target solver: CVC4, Z3, Z3str3, Z3-Trau
|)
(set-info :license "https://creativecommons.org/licenses/by/4.0/")
(set-info :category "industrial")
(set-info :status unknown)

(declare-fun s () String)
(declare-fun p () String)
(declare-const part_0_2593 String)
(declare-const part_0_4424 String)

(assert (and (and (and (and (and (and (and (and (and (and (and (and (and (and (and (and (and (and (and (and (and (and (and (and (and (and (and (and (and (and (and (and (not (not (not (= (ite (> (str.len s) 10) 1 0) 0)))) (not (= (ite (= (str.len p) 7) 1 0) 0))) (not (= (ite (= (- (+ (- (+ (- (+ (- (- (- (- (- (- (- (str.len p) 1) 1) 1) 1) 1) 1) 1) 1) 1) 1) 1) 1) 1) 0) 1 0) 0))) (not (= (ite (> (str.len s) 9) 1 0) 0))) (not (= (ite (= (str.len p) 7) 1 0) 0))) (not (= (ite (= (- (+ (- (+ (- (- (- (- (- (- (- (str.len p) 1) 1) 1) 1) 1) 1) 1) 1) 1) 1) 1) 0) 1 0) 0))) (not (= (ite (> (str.len s) 8) 1 0) 0))) (not (= (ite (= (str.len p) 7) 1 0) 0))) (not (= (ite (= (- (+ (- (- (- (- (- (- (- (str.len p) 1) 1) 1) 1) 1) 1) 1) 1) 1) 0) 1 0) 0))) (not (= (ite (> (str.len s) 7) 1 0) 0))) (not (= (ite (= (str.len p) 7) 1 0) 0))) (not (= (ite (= (- (- (- (- (- (- (- (str.len p) 1) 1) 1) 1) 1) 1) 1) 0) 1 0) 0))) (not (= (ite (> (str.len s) 6) 1 0) 0))) (not (not (= (ite (= (str.len p) 6) 1 0) 0)))) (not (not (= (ite (= (- (- (- (- (- (- (str.len p) 1) 1) 1) 1) 1) 1) 0) 1 0) 0)))) (not (= (ite (> (str.len s) 5) 1 0) 0))) (not (not (= (ite (= (str.len p) 5) 1 0) 0)))) (not (not (= (ite (= (- (- (- (- (- (str.len p) 1) 1) 1) 1) 1) 0) 1 0) 0)))) (not (= (ite (> (str.len s) 4) 1 0) 0))) (not (not (= (ite (= (str.len p) 4) 1 0) 0)))) (not (not (= (ite (= (- (- (- (- (str.len p) 1) 1) 1) 1) 0) 1 0) 0)))) (not (= (ite (> (str.len s) 3) 1 0) 0))) (not (not (= (ite (= (str.len p) 3) 1 0) 0)))) (not (not (= (ite (= (- (- (- (str.len p) 1) 1) 1) 0) 1 0) 0)))) (not (= (ite (> (str.len s) 2) 1 0) 0))) (not (not (= (ite (= (str.len p) 2) 1 0) 0)))) (not (not (= (ite (= (- (- (str.len p) 1) 1) 0) 1 0) 0)))) (not (= (ite (> (str.len s) 1) 1 0) 0))) (not (not (= (ite (= (str.len p) 1) 1 0) 0)))) (not (not (= (ite (= (- (str.len p) 1) 0) 1 0) 0)))) (not (= (ite (> (str.len s) 0) 1 0) 0))) (not (not (= (ite (= (str.len p) 0) 1 0) 0)))) (not (not (= (ite (= (str.len s) 0) 1 0) 0)))))

(assert (= (str.split_at p "||" 1) part_0_2593))
(assert (str.prefixof "a" part_0_2593))
(assert (and (>= (str.num_splits p "||") 1) (<= (str.num_splits p "||") 4)))
(assert (= (str.split_at p "4" 4) part_0_4424))
(assert (str.suffixof "x" part_0_4424))
(assert (= (str.split_rest p "4" 4) "bikkr3x0eik6"))
(assert (and (>= (str.num_splits p "4") 2) (<= (str.num_splits p "4") 4)))
(check-sat)

(exit)
(get-model)
