cvc5/209a7c61bdeaea04f6723684f606699e8a2dac589cf03aa593675c21_hard.txt
(define-fun s () String "AAAAAAAAAAA")
(define-fun p () String "AAAAAAA")
(define-fun part_0_2593 () String "a")
(define-fun part_0_4424 () String "x")